c This is an example of a 2-coloring problem for an undirected graph G with vertices V = {1,2,3,4,5} and edges E = { (1,2), (2,3), (2,4), (3,4), (4,5) }
p cnf 5 10
d 1 2
d 2 2
d 3 2
d 4 2
d 5 2
1!=0 2!=0 0
2!=0 3!=0 0
2!=0 4!=0 0
3!=0 4!=0 0
4!=0 5!=0 0
1!=1 2!=1 0
2!=1 3!=1 0
2!=1 4!=1 0
3!=1 4!=1 0
4!=1 5!=1 0
